benchmarks_CP/INST_36x36/30/inst36x36_30_14.dzn
S=6;
start=[|
-1,	11,	-1,	13,	-1,	-1,	-1,	-1,	-1,	14,	-1,	-1,	12,	-1,	-1,	-1,	1,	5,	17,	-1,	29,	-1,	-1,	-1,	-1,	-1,	-1,	30,	-1,	-1,	-1,	-1,	10,	-1,	-1,	22|
-1,	-1,	-1,	-1,	-1,	-1,	-1,	29,	-1,	-1,	11,	35,	-1,	-1,	-1,	20,	-1,	-1,	23,	-1,	-1,	14,	-1,	-1,	-1,	-1,	5,	-1,	1,	-1,	27,	-1,	-1,	-1,	21,	-1|
-1,	5,	-1,	-1,	-1,	-1,	-1,	-1,	-1,	-1,	-1,	17,	7,	29,	11,	-1,	-1,	27,	-1,	-1,	13,	-1,	24,	1,	-1,	-1,	-1,	-1,	-1,	16,	-1,	-1,	-1,	2,	-1,	-1|
-1,	-1,	-1,	-1,	32,	20,	-1,	-1,	-1,	26,	33,	-1,	22,	-1,	-1,	-1,	-1,	19,	-1,	-1,	-1,	-1,	-1,	-1,	-1,	-1,	25,	17,	-1,	29,	-1,	-1,	-1,	36,	16,	30|
-1,	-1,	6,	-1,	25,	-1,	3,	16,	-1,	23,	28,	21,	18,	-1,	-1,	-1,	-1,	-1,	-1,	-1,	-1,	35,	-1,	4,	27,	-1,	-1,	20,	-1,	-1,	7,	-1,	-1,	-1,	-1,	-1|
-1,	-1,	19,	-1,	-1,	27,	-1,	20,	-1,	-1,	8,	15,	-1,	-1,	-1,	36,	-1,	-1,	-1,	-1,	18,	-1,	-1,	-1,	-1,	-1,	-1,	-1,	-1,	-1,	-1,	-1,	-1,	-1,	-1,	-1|
-1,	27,	-1,	3,	-1,	-1,	-1,	-1,	-1,	-1,	12,	30,	-1,	-1,	-1,	10,	15,	-1,	29,	-1,	-1,	-1,	-1,	-1,	-1,	16,	-1,	-1,	-1,	5,	-1,	-1,	-1,	-1,	26,	-1|
19,	15,	34,	-1,	-1,	8,	-1,	-1,	-1,	35,	14,	-1,	-1,	36,	-1,	-1,	-1,	-1,	-1,	-1,	-1,	-1,	-1,	-1,	-1,	-1,	-1,	-1,	-1,	-1,	-1,	25,	-1,	-1,	-1,	-1|
-1,	-1,	29,	-1,	36,	-1,	2,	-1,	18,	-1,	-1,	5,	26,	35,	-1,	-1,	-1,	23,	14,	9,	-1,	16,	1,	13,	24,	-1,	-1,	-1,	32,	-1,	-1,	-1,	7,	-1,	10,	-1|
24,	-1,	-1,	-1,	-1,	28,	16,	4,	-1,	-1,	-1,	-1,	-1,	-1,	-1,	27,	-1,	-1,	-1,	-1,	-1,	-1,	21,	7,	-1,	-1,	-1,	-1,	-1,	-1,	-1,	1,	3,	-1,	-1,	-1|
-1,	-1,	-1,	17,	-1,	-1,	-1,	-1,	-1,	28,	-1,	-1,	-1,	-1,	1,	9,	-1,	-1,	-1,	-1,	-1,	25,	10,	36,	4,	-1,	11,	-1,	-1,	-1,	-1,	-1,	-1,	-1,	-1,	-1|
20,	26,	22,	-1,	-1,	9,	-1,	-1,	25,	-1,	-1,	-1,	8,	-1,	-1,	16,	-1,	28,	35,	-1,	-1,	18,	-1,	-1,	-1,	14,	-1,	-1,	-1,	10,	-1,	5,	-1,	4,	-1,	-1|
25,	-1,	1,	2,	-1,	10,	21,	-1,	-1,	19,	4,	-1,	15,	-1,	-1,	-1,	-1,	-1,	-1,	-1,	-1,	11,	-1,	-1,	-1,	-1,	-1,	5,	23,	-1,	-1,	-1,	-1,	-1,	-1,	34|
3,	-1,	15,	-1,	-1,	-1,	-1,	-1,	35,	-1,	30,	-1,	-1,	-1,	2,	-1,	-1,	-1,	9,	-1,	-1,	-1,	-1,	-1,	-1,	-1,	4,	-1,	-1,	-1,	-1,	-1,	-1,	10,	-1,	7|
-1,	-1,	-1,	-1,	-1,	-1,	-1,	24,	2,	-1,	-1,	-1,	28,	-1,	-1,	-1,	-1,	-1,	-1,	-1,	-1,	-1,	-1,	34,	11,	-1,	-1,	-1,	-1,	-1,	-1,	12,	-1,	-1,	-1,	-1|
-1,	13,	-1,	11,	-1,	-1,	9,	34,	-1,	-1,	-1,	6,	-1,	-1,	-1,	3,	-1,	-1,	28,	5,	-1,	-1,	4,	-1,	-1,	-1,	35,	-1,	-1,	-1,	15,	33,	-1,	-1,	-1,	-1|
-1,	24,	4,	-1,	27,	-1,	-1,	-1,	-1,	-1,	-1,	-1,	34,	-1,	-1,	-1,	6,	-1,	-1,	-1,	-1,	19,	-1,	-1,	28,	-1,	-1,	-1,	-1,	-1,	-1,	22,	-1,	-1,	-1,	5|
-1,	-1,	20,	-1,	12,	36,	-1,	5,	-1,	-1,	1,	27,	16,	19,	22,	11,	4,	-1,	7,	-1,	31,	-1,	-1,	-1,	-1,	-1,	-1,	-1,	-1,	-1,	-1,	-1,	-1,	-1,	29,	24|
-1,	1,	-1,	-1,	-1,	-1,	-1,	-1,	-1,	-1,	21,	-1,	-1,	-1,	-1,	-1,	-1,	-1,	22,	30,	-1,	-1,	-1,	-1,	-1,	8,	29,	34,	-1,	-1,	32,	-1,	36,	-1,	-1,	-1|
36,	-1,	-1,	28,	-1,	-1,	-1,	13,	4,	-1,	-1,	-1,	-1,	-1,	-1,	-1,	-1,	-1,	33,	-1,	-1,	-1,	-1,	-1,	7,	-1,	-1,	-1,	-1,	30,	23,	8,	-1,	-1,	-1,	18|
-1,	6,	13,	-1,	-1,	-1,	8,	36,	-1,	-1,	-1,	24,	1,	22,	-1,	19,	-1,	-1,	-1,	32,	-1,	-1,	-1,	-1,	-1,	-1,	-1,	14,	17,	-1,	10,	-1,	-1,	-1,	-1,	-1|
-1,	35,	-1,	-1,	34,	-1,	-1,	-1,	-1,	32,	-1,	-1,	-1,	13,	20,	-1,	-1,	11,	-1,	-1,	-1,	-1,	-1,	5,	-1,	-1,	31,	-1,	-1,	-1,	-1,	-1,	9,	-1,	-1,	-1|
-1,	-1,	-1,	-1,	9,	32,	-1,	-1,	-1,	17,	25,	-1,	-1,	34,	-1,	-1,	29,	36,	-1,	1,	-1,	-1,	-1,	23,	-1,	-1,	27,	22,	-1,	-1,	-1,	-1,	21,	-1,	-1,	-1|
-1,	25,	-1,	-1,	-1,	-1,	-1,	-1,	-1,	30,	18,	-1,	4,	2,	-1,	-1,	10,	-1,	-1,	15,	16,	13,	-1,	-1,	-1,	23,	-1,	11,	3,	33,	-1,	-1,	-1,	12,	7,	-1|
-1,	-1,	-1,	14,	-1,	-1,	-1,	-1,	-1,	-1,	-1,	-1,	-1,	-1,	-1,	-1,	-1,	-1,	18,	-1,	-1,	-1,	35,	-1,	30,	9,	-1,	-1,	25,	-1,	-1,	24,	-1,	-1,	-1,	-1|
-1,	-1,	-1,	-1,	-1,	-1,	-1,	-1,	-1,	-1,	-1,	23,	-1,	11,	-1,	-1,	-1,	-1,	-1,	-1,	-1,	-1,	-1,	15,	-1,	27,	-1,	-1,	-1,	-1,	-1,	-1,	12,	-1,	-1,	-1|
-1,	4,	-1,	-1,	-1,	13,	-1,	-1,	27,	-1,	-1,	-1,	10,	-1,	35,	31,	-1,	16,	19,	-1,	-1,	-1,	-1,	26,	8,	-1,	18,	-1,	-1,	-1,	-1,	-1,	-1,	-1,	14,	-1|
-1,	-1,	-1,	-1,	-1,	11,	-1,	-1,	16,	33,	35,	4,	-1,	-1,	-1,	-1,	-1,	-1,	-1,	-1,	-1,	-1,	-1,	-1,	14,	-1,	-1,	-1,	28,	-1,	-1,	-1,	-1,	21,	-1,	6|
-1,	-1,	-1,	26,	-1,	-1,	-1,	-1,	-1,	-1,	-1,	-1,	32,	21,	-1,	14,	-1,	-1,	-1,	-1,	-1,	-1,	8,	-1,	-1,	-1,	1,	-1,	-1,	-1,	16,	-1,	35,	-1,	-1,	2|
-1,	-1,	-1,	-1,	-1,	-1,	1,	-1,	-1,	18,	-1,	-1,	-1,	26,	-1,	-1,	-1,	8,	-1,	-1,	23,	-1,	-1,	-1,	-1,	-1,	-1,	-1,	-1,	24,	-1,	-1,	-1,	-1,	-1,	-1|
8,	18,	26,	-1,	10,	-1,	32,	-1,	23,	-1,	-1,	16,	14,	-1,	28,	34,	5,	-1,	31,	-1,	33,	-1,	-1,	-1,	-1,	-1,	-1,	-1,	12,	-1,	36,	-1,	-1,	-1,	-1,	-1|
22,	3,	-1,	30,	13,	-1,	4,	7,	-1,	21,	26,	-1,	-1,	-1,	-1,	1,	8,	-1,	-1,	14,	-1,	-1,	27,	-1,	-1,	-1,	-1,	-1,	-1,	15,	-1,	11,	34,	23,	-1,	33|
-1,	36,	-1,	-1,	-1,	-1,	27,	35,	-1,	13,	-1,	-1,	-1,	-1,	-1,	29,	-1,	-1,	5,	-1,	-1,	-1,	-1,	-1,	34,	-1,	-1,	-1,	-1,	-1,	-1,	-1,	-1,	-1,	-1,	-1|
34,	31,	-1,	15,	-1,	-1,	-1,	-1,	-1,	-1,	24,	1,	20,	33,	-1,	-1,	-1,	-1,	12,	-1,	-1,	-1,	-1,	-1,	-1,	-1,	14,	7,	-1,	2,	-1,	21,	-1,	-1,	-1,	28|
21,	-1,	-1,	33,	23,	-1,	30,	9,	-1,	-1,	-1,	34,	-1,	32,	-1,	7,	-1,	-1,	-1,	-1,	-1,	22,	-1,	25,	-1,	-1,	17,	-1,	-1,	28,	-1,	31,	-1,	-1,	-1,	-1|
27,	17,	-1,	-1,	20,	-1,	-1,	33,	-1,	-1,	2,	25,	21,	23,	19,	-1,	-1,	4,	-1,	-1,	-1,	-1,	-1,	-1,	-1,	-1,	-1,	-1,	-1,	31,	1,	-1,	24,	-1,	-1,	3|];
